multiobj/instances/reallike/Ter-rl-5-2--0.80-1.0-2.in
5 2
0 46 118 40 96 
46 0 88 10 53 
118 88 0 85 53 
40 10 85 0 56 
96 53 53 56 0 
0 1 0 0 2684 
1 0 0 53 24 
0 0 0 1330 92446 
0 53 1330 0 0 
2684 24 92446 0 0 
0 0 5185 19499 0 
0 0 50815 0 0 
5185 50815 0 0 0 
19499 0 0 0 7937 
0 0 0 7937 0 
