multiobj/solutions/reallike/Ter-rl-5-2--0.80-1.0-2.out
7 2
0 2 1 4 3 
2214554 14053212 
0 2 3 4 1 
2254886 13638480 
0 4 1 2 3 
2306218 11814464 
4 0 3 2 1 
2374432 8109726 
2 0 3 4 1 
2482884 7854866 
4 1 3 2 0 
8148750 5537046 
2 1 3 4 0 
8186066 5488548 
